# Solution for model RGN
# Objective value = 8.2199999239999983e+01
A1 0
B1 0
C1 0
D1 0
E1 0
AB1 0
AC1 0
AD1 0
AE1 0
BC1 0
BD1 0
BE1 0
CD1 0
CE1 0
DE1 0
ABC1 0
ABD1 0
ABE1 0
ACD1 0
ACE1 0
ADE1 0
BCD1 0
BCE1 0
BDE1 1
CDE1 0
A2 0
B2 0
C2 0
D2 0
E2 0
AB2 0
AC2 0
AD2 0
AE2 0
BC2 0
BD2 0
BE2 0
CD2 0
CE2 0
DE2 0
ABC2 0
ABD2 0
ABE2 0
ACD2 1
ACE2 0
ADE2 0
BCD2 0
BCE2 0
BDE2 0
CDE2 0
A3 0
B3 0
C3 0
D3 0
E3 0
AB3 0
AC3 0
AD3 0
AE3 0
BC3 0
BD3 0
BE3 0
CD3 0
CE3 0
DE3 0
ABC3 0
ABD3 0
ABE3 0
ACD3 0
ACE3 0
ADE3 0
BCD3 0
BCE3 1
BDE3 0
CDE3 0
A4 0
B4 0
C4 0
D4 0
E4 0
AB4 0
AC4 0
AD4 0
AE4 0
BC4 0
BD4 0
BE4 0
CD4 0
CE4 0
DE4 0
ABC4 0
ABD4 0
ABE4 0
ACD4 0
ACE4 0
ADE4 1
BCD4 0
BCE4 0
BDE4 0
CDE4 0
TA1 0
TA2 0
TA3 0
TA4 0
TB1 0
TB2 0
TB3 0
TB4 0
TC1 0
TC2 0
TC3 0
TC4 0
TD1 0
TD2 2.0000004000000082e-01
TD3 0
TD4 0
TE1 0
TE2 0
TE3 0
TE4 0
UA1 0
UA2 0
UA3 0
UA4 0
UB1 1.1000000200000004e+00
UB2 0
UB3 0
UB4 0
UC1 0
UC2 0
UC3 0
UC4 0
UD1 1.1000000200000004e+00
UD2 2
UD3 0
UD4 0
UE1 1.1000000200000004e+00
UE2 0
UE3 0
UE4 0
VA1 2
VA2 2
VA3 2
VA4 2
VB1 0
VB2 2
VB3 1.2999999599999992e+00
VB4 2
VC1 2
VC2 2
VC3 1.2999999599999992e+00
VC4 2
VD1 0
VD2 0
VD3 1.2999999599999992e+00
VD4 1.9999993999999877e-01
VE1 0
VE2 2
VE3 1.2999999599999992e+00
VE4 1.9999993999999877e-01
WA1 1.5
WA2 3.9999997999999959e-01
WA3 3.8999999799999996e+00
WA4 2.7999999599999992e+00
WB1 0
WB2 3.9999997999999959e-01
WB3 0
WB4 2.7999999599999992e+00
WC1 1.5
WC2 3.9999997999999959e-01
WC3 0
WC4 2.7999999599999992e+00
WD1 0
WD2 0
WD3 0
WD4 0
WE1 0
WE2 3.9999997999999959e-01
WE3 0
WE4 0
